\Problem name: samp1.lp

Maximize
 900 g1 + 600 g2 + 300 g3 + 10000 t1 + 5000 t2 + 2000 t3
Subject To
 g1 + g2 + g3 + 10 t1 + 10 t2 + 10 t3 <= 150
 g1 >= 0
 g2 >= 0
 g3 >= 0 
 t1 >= 0
 t2 >= 0
 t3 >= 0
 g1 <= 10
 g2 <= 10
 g3 <= 10
 t1 <= 5
 t2 <= 5
 t3 <= 5
Bounds
 0 <= X1 <= 4
 2 <= X2 <= 5
 0 <= X3 <= 1
 3 <= X4 <= 8
Binaries
 X3 
Generals
 X2 
End